results_rootrelaxation/bin012_060_005.srr.sol
solution status: optimal solution found
objective value:                     2.26244725738397
_var678_                             0.19746835443038 	(obj:0)
_var716_                            0.717018284106892 	(obj:0)
_var720_                           0.0742616033755278 	(obj:0)
_var725_                            0.113924050632911 	(obj:1)
_var726_                            0.313642756680732 	(obj:0)
_var759_                            0.247538677918425 	(obj:0)
_var760_                            0.034599156118143 	(obj:0)
_var762_                           0.0151898734177216 	(obj:0)
_var763_                           0.0239099859353023 	(obj:0)
_var776_                            0.252320675105485 	(obj:0)
_var782_                            0.125175808720113 	(obj:0)
_var789_                            0.155555555555556 	(obj:0)
_var796_                            0.365682137834037 	(obj:1)
_var811_                            0.267510548523207 	(obj:0)
_var814_                            0.157805907172995 	(obj:0)
_var819_                            0.113924050632911 	(obj:0)
_var822_                             0.10182841068917 	(obj:0)
_var825_                            0.107454289732771 	(obj:0)
_var826_                            0.123206751054852 	(obj:1)
_var828_                           0.0579465541490858 	(obj:0)
_var829_                            0.228410689170182 	(obj:0)
_var830_                            0.313361462728551 	(obj:0)
_var831_                            0.146554149085795 	(obj:0)
_var836_                           0.0483825597749646 	(obj:0)
_var838_                            0.423066104078763 	(obj:0)
_var841_                            0.344866385372715 	(obj:0)
_var845_                            0.422222222222223 	(obj:1)
_var846_                            0.200562587904361 	(obj:0)
_var854_                            0.686638537271449 	(obj:0)
_var856_                            0.130239099859353 	(obj:2)
_var857_                            0.447538677918425 	(obj:1)
_var864_                           0.0886075949367082 	(obj:0)
_var867_                            0.266385372714487 	(obj:1)
_var872_                            0.423066104078762 	(obj:0)
_var874_                           0.0886075949367089 	(obj:0)
_var876_                           0.0579465541490858 	(obj:0)
_var877_                            0.138396624472574 	(obj:0)
_var879_                            0.161462728551336 	(obj:0)
_var882_                            0.123206751054852 	(obj:0)
_var883_                            0.481856540084388 	(obj:0)
_var885_                            0.166807313642757 	(obj:0)
_var887_                              0.1915611814346 	(obj:0)
_var888_                            0.123206751054852 	(obj:0)
_var890_                            0.107454289732771 	(obj:0)
_var891_                            0.421097046413502 	(obj:0)
_var892_                           0.0219409282700423 	(obj:1)
_var893_                            0.226160337552743 	(obj:0)
_var894_                            0.258509142053446 	(obj:0)
_var896_                           0.0644163150492262 	(obj:0)
_var898_                           0.0438818565400831 	(obj:1)
_var902_                           0.0649789029535856 	(obj:0)
_var904_                           0.0579465541490858 	(obj:0)
_var905_                           0.0807313642756673 	(obj:0)
_var906_                           0.0579465541490858 	(obj:1)
_var907_                           0.0106891701828416 	(obj:1)
_var908_                           0.0177215189873421 	(obj:0)
_var910_                           0.0326300984528823 	(obj:0)
_var911_                           0.0492264416315043 	(obj:0)
_var912_                           0.0872011251758086 	(obj:0)
_var913_                           0.0219409282700423 	(obj:1)
_var914_                            0.106610407876232 	(obj:1)
