results_rootrelaxation/bin012_060_005.srr.log
SCIP version 8.0.3.5 [precision: 8 byte] [memory: block] [mode: optimized] [LP solver: Soplex 6.0.1.3] [GitHash: 438792519e]
Copyright (c) 2002-2023 Zuse Institute Berlin (ZIB)

External libraries: 
  Readline 8.1         GNU library for command line editing (gnu.org/s/readline)
  Soplex 6.0.1.3       Linear Programming Solver developed at Zuse Institute Berlin (soplex.zib.de) [GitHash: 713be0fe]
  CppAD 20180000.0     Algorithmic Differentiation of C++ algorithms developed by B. Bell (github.com/coin-or/CppAD)
  ZLIB 1.2.11          General purpose compression library by J. Gailly and M. Adler (zlib.net)
  bliss 0.77           Computing Graph Automorphism Groups by T. Junttila and P. Kaski (www.tcs.hut.fi/Software/bliss/)

user parameter file <scip.set> not found - using default parameters

srr/relaxation = TRUE

read problem <instances/bin012_060_005.srr>
============

Original problem: 
original problem has 0 variables (0 bin, 0 int, 0 impl, 0 cont) and 77 constraints

presolving:
presolving (1 rounds: 1 fast, 1 medium, 1 exhaustive):
 0 deleted vars, 0 deleted constraints, 0 added constraints, 0 tightened bounds, 0 added holes, 0 changed sides, 0 changed coefficients
 0 implications, 0 cliques
presolved problem has 0 variables (0 bin, 0 int, 0 impl, 0 cont) and 77 constraints
     77 constraints of type <linear>
Presolving Time: 0.00

 time | node  | left  |LP iter|LP it/n|mem/heur|mdpt |vars |cons |rows |cuts |sepa|confs|strbr|  dualbound   | primalbound  |  gap   | compl. 
  0.0s|     1 |     0 |     1 |     - |   710k |   0 |   1 |  77 |  77 |   0 |  0 |   0 |   0 |      --      |      --      |    Inf | unknown
r 0.0s|     1 |     0 |   912 |     - |simplero|   0 | 676 |  77 |  77 |   0 |  0 |   0 |   0 |      --      | 2.133166e+01 |    Inf | unknown
r 0.0s|     1 |     0 |   942 |     - |simplero|   0 | 687 |  77 |  77 |   0 |  0 |   0 |   0 |      --      | 1.921705e+01 |    Inf | unknown
r 0.0s|     1 |     0 |   975 |     - |simplero|   0 | 698 |  77 |  77 |   0 |  0 |   0 |   0 |      --      | 1.865946e+01 |    Inf | unknown
r 0.0s|     1 |     0 |  1040 |     - |simplero|   0 | 709 |  77 |  77 |   0 |  0 |   0 |   0 |      --      | 1.646390e+01 |    Inf | unknown
r 0.1s|     1 |     0 |  1092 |     - |simplero|   0 | 720 |  77 |  77 |   0 |  0 |   0 |   0 |      --      | 1.555229e+01 |    Inf | unknown
r 0.1s|     1 |     0 |  1169 |     - |simplero|   0 | 731 |  77 |  77 |   0 |  0 |   0 |   0 |      --      | 1.265678e+01 |    Inf | unknown
r 0.1s|     1 |     0 |  1210 |     - |simplero|   0 | 742 |  77 |  77 |   0 |  0 |   0 |   0 |      --      | 1.179742e+01 |    Inf | unknown
r 0.1s|     1 |     0 |  1279 |     - |simplero|   0 | 753 |  77 |  77 |   0 |  0 |   0 |   0 |      --      | 1.001294e+01 |    Inf | unknown
r 0.1s|     1 |     0 |  1305 |     - |simplero|   0 | 764 |  77 |  77 |   0 |  0 |   0 |   0 |      --      | 9.252208e+00 |    Inf | unknown
r 0.1s|     1 |     0 |  1319 |     - |simplero|   0 | 764 |  77 |  77 |   0 |  0 |   0 |   0 |      --      | 9.088662e+00 |    Inf | unknown
r 0.1s|     1 |     0 |  1327 |     - |simplero|   0 | 764 |  77 |  77 |   0 |  0 |   0 |   0 |      --      | 9.029229e+00 |    Inf | unknown
r 0.1s|     1 |     0 |  1333 |     - |simplero|   0 | 764 |  77 |  77 |   0 |  0 |   0 |   0 |      --      | 9.015764e+00 |    Inf | unknown
r 0.1s|     1 |     0 |  1381 |     - |simplero|   0 | 775 |  77 |  77 |   0 |  0 |   0 |   0 |      --      | 7.657159e+00 |    Inf | unknown
r 0.1s|     1 |     0 |  1398 |     - |simplero|   0 | 775 |  77 |  77 |   0 |  0 |   0 |   0 |      --      | 7.546399e+00 |    Inf | unknown
 time | node  | left  |LP iter|LP it/n|mem/heur|mdpt |vars |cons |rows |cuts |sepa|confs|strbr|  dualbound   | primalbound  |  gap   | compl. 
r 0.1s|     1 |     0 |  1402 |     - |simplero|   0 | 775 |  77 |  77 |   0 |  0 |   0 |   0 |      --      | 7.544896e+00 |    Inf | unknown
r 0.1s|     1 |     0 |  1455 |     - |simplero|   0 | 786 |  77 |  77 |   0 |  0 |   0 |   0 |      --      | 6.272144e+00 |    Inf | unknown
r 0.1s|     1 |     0 |  1472 |     - |simplero|   0 | 786 |  77 |  77 |   0 |  0 |   0 |   0 |      --      | 6.144617e+00 |    Inf | unknown
r 0.1s|     1 |     0 |  1501 |     - |simplero|   0 | 797 |  77 |  77 |   0 |  0 |   0 |   0 |      --      | 5.781923e+00 |    Inf | unknown
r 0.1s|     1 |     0 |  1509 |     - |simplero|   0 | 797 |  77 |  77 |   0 |  0 |   0 |   0 |      --      | 5.770926e+00 |    Inf | unknown
r 0.1s|     1 |     0 |  1511 |     - |simplero|   0 | 797 |  77 |  77 |   0 |  0 |   0 |   0 |      --      | 5.770220e+00 |    Inf | unknown
r 0.1s|     1 |     0 |  1546 |     - |simplero|   0 | 808 |  77 |  77 |   0 |  0 |   0 |   0 |      --      | 5.316491e+00 |    Inf | unknown
r 0.1s|     1 |     0 |  1564 |     - |simplero|   0 | 808 |  77 |  77 |   0 |  0 |   0 |   0 |      --      | 5.127654e+00 |    Inf | unknown
r 0.1s|     1 |     0 |  1568 |     - |simplero|   0 | 808 |  77 |  77 |   0 |  0 |   0 |   0 |      --      | 5.123049e+00 |    Inf | unknown
r 0.1s|     1 |     0 |  1594 |     - |simplero|   0 | 819 |  77 |  77 |   0 |  0 |   0 |   0 |      --      | 4.934971e+00 |    Inf | unknown
r 0.1s|     1 |     0 |  1603 |     - |simplero|   0 | 819 |  77 |  77 |   0 |  0 |   0 |   0 |      --      | 4.885267e+00 |    Inf | unknown
r 0.1s|     1 |     0 |  1607 |     - |simplero|   0 | 819 |  77 |  77 |   0 |  0 |   0 |   0 |      --      | 4.883958e+00 |    Inf | unknown
r 0.1s|     1 |     0 |  1631 |     - |simplero|   0 | 830 |  77 |  77 |   0 |  0 |   0 |   0 |      --      | 4.454760e+00 |    Inf | unknown
r 0.1s|     1 |     0 |  1648 |     - |simplero|   0 | 830 |  77 |  77 |   0 |  0 |   0 |   0 |      --      | 4.261398e+00 |    Inf | unknown
r 0.1s|     1 |     0 |  1658 |     - |simplero|   0 | 830 |  77 |  77 |   0 |  0 |   0 |   0 |      --      | 4.241584e+00 |    Inf | unknown
 time | node  | left  |LP iter|LP it/n|mem/heur|mdpt |vars |cons |rows |cuts |sepa|confs|strbr|  dualbound   | primalbound  |  gap   | compl. 
r 0.1s|     1 |     0 |  1659 |     - |simplero|   0 | 830 |  77 |  77 |   0 |  0 |   0 |   0 |      --      | 4.241182e+00 |    Inf | unknown
r 0.1s|     1 |     0 |  1697 |     - |simplero|   0 | 841 |  77 |  77 |   0 |  0 |   0 |   0 |      --      | 3.747313e+00 |    Inf | unknown
r 0.1s|     1 |     0 |  1709 |     - |simplero|   0 | 841 |  77 |  77 |   0 |  0 |   0 |   0 |      --      | 3.739414e+00 |    Inf | unknown
r 0.1s|     1 |     0 |  1740 |     - |simplero|   0 | 852 |  77 |  77 |   0 |  0 |   0 |   0 |      --      | 3.213761e+00 |    Inf | unknown
  0.1s|     1 |     0 |  1745 |     - |  4171k |   0 | 852 |  77 |  77 |   0 |  0 |   0 |   0 |      --      | 3.213761e+00 |    Inf | unknown
r 0.1s|     1 |     0 |  1745 |     - |simplero|   0 | 852 |  77 |  77 |   0 |  0 |   0 |   0 |      --      | 3.191094e+00 |    Inf | unknown
r 0.1s|     1 |     0 |  1747 |     - |simplero|   0 | 852 |  77 |  77 |   0 |  0 |   0 |   0 |      --      | 3.191031e+00 |    Inf | unknown
r 0.1s|     1 |     0 |  1768 |     - |simplero|   0 | 863 |  77 |  77 |   0 |  0 |   0 |   0 |      --      | 3.002912e+00 |    Inf | unknown
r 0.1s|     1 |     0 |  1780 |     - |simplero|   0 | 863 |  77 |  77 |   0 |  0 |   0 |   0 |      --      | 2.964876e+00 |    Inf | unknown
r 0.1s|     1 |     0 |  1787 |     - |simplero|   0 | 863 |  77 |  77 |   0 |  0 |   0 |   0 |      --      | 2.962513e+00 |    Inf | unknown
r 0.1s|     1 |     0 |  1808 |     - |simplero|   0 | 874 |  77 |  77 |   0 |  0 |   0 |   0 |      --      | 2.793075e+00 |    Inf | unknown
r 0.1s|     1 |     0 |  1821 |     - |simplero|   0 | 874 |  77 |  77 |   0 |  0 |   0 |   0 |      --      | 2.747605e+00 |    Inf | unknown
r 0.1s|     1 |     0 |  1844 |     - |simplero|   0 | 885 |  77 |  77 |   0 |  0 |   0 |   0 |      --      | 2.654638e+00 |    Inf | unknown
r 0.1s|     1 |     0 |  1853 |     - |simplero|   0 | 885 |  77 |  77 |   0 |  0 |   0 |   0 |      --      | 2.628653e+00 |    Inf | unknown
r 0.1s|     1 |     0 |  1888 |     - |simplero|   0 | 894 |  77 |  77 |   0 |  0 |   0 |   0 |      --      | 2.384301e+00 |    Inf | unknown
 time | node  | left  |LP iter|LP it/n|mem/heur|mdpt |vars |cons |rows |cuts |sepa|confs|strbr|  dualbound   | primalbound  |  gap   | compl. 
r 0.1s|     1 |     0 |  1904 |     - |simplero|   0 | 902 |  77 |  77 |   0 |  0 |   0 |   0 |      --      | 2.325946e+00 |    Inf | unknown
r 0.1s|     1 |     0 |  1907 |     - |simplero|   0 | 902 |  77 |  77 |   0 |  0 |   0 |   0 |      --      | 2.324733e+00 |    Inf | unknown
r 0.1s|     1 |     0 |  1922 |     - |simplero|   0 | 912 |  77 |  77 |   0 |  0 |   0 |   0 |      --      | 2.274590e+00 |    Inf | unknown
r 0.1s|     1 |     0 |  1929 |     - |simplero|   0 | 915 |  77 |  77 |   0 |  0 |   0 |   0 |      --      | 2.262447e+00 |    Inf | unknown
  0.1s|     1 |     0 |  1929 |     - |  4375k |   0 | 915 |  77 |  77 |   0 |  0 |   0 |   0 | 2.262447e+00 | 2.262447e+00 |   0.00%| unknown
  0.1s|     1 |     0 |  1929 |     - |  4375k |   0 | 915 |  77 |  77 |   0 |  0 |   0 |   0 | 2.262447e+00 | 2.262447e+00 |   0.00%| unknown

SCIP Status        : problem is solved [optimal solution found]
Solving Time (sec) : 0.11
Solving Nodes      : 1
Primal Bound       : +2.26244725738397e+00 (47 solutions)
Dual Bound         : +2.26244725738397e+00
Gap                : 0.00 %

written transformed problem to file <results_rootrelaxation/bin012_060_005.srr.lp>
written transformed problem to file <results_rootrelaxation/bin012_060_005.srr.cip>


SCIP version 8.0.3.5 [precision: 8 byte] [memory: block] [mode: optimized] [LP solver: Soplex 6.0.1.3] [GitHash: 438792519e]
Copyright (c) 2002-2023 Zuse Institute Berlin (ZIB)

External libraries: 
  Readline 8.1         GNU library for command line editing (gnu.org/s/readline)
  Soplex 6.0.1.3       Linear Programming Solver developed at Zuse Institute Berlin (soplex.zib.de) [GitHash: 713be0fe]
  CppAD 20180000.0     Algorithmic Differentiation of C++ algorithms developed by B. Bell (github.com/coin-or/CppAD)
  ZLIB 1.2.11          General purpose compression library by J. Gailly and M. Adler (zlib.net)
  bliss 0.77           Computing Graph Automorphism Groups by T. Junttila and P. Kaski (www.tcs.hut.fi/Software/bliss/)

user parameter file <scip.set> not found - using default parameters

srr/relaxation = TRUE

read problem <instances/bin012_060_005.srr>
============

Original problem: 
original problem has 0 variables (0 bin, 0 int, 0 impl, 0 cont) and 77 constraints

presolving:
presolving (1 rounds: 1 fast, 1 medium, 1 exhaustive):
 0 deleted vars, 0 deleted constraints, 0 added constraints, 0 tightened bounds, 0 added holes, 0 changed sides, 0 changed coefficients
 0 implications, 0 cliques
presolved problem has 0 variables (0 bin, 0 int, 0 impl, 0 cont) and 77 constraints
     77 constraints of type <linear>
Presolving Time: 0.00

 time | node  | left  |LP iter|LP it/n|mem/heur|mdpt |vars |cons |rows |cuts |sepa|confs|strbr|  dualbound   | primalbound  |  gap   | compl. 
  0.0s|     1 |     0 |     1 |     - |   710k |   0 |   1 |  77 |  77 |   0 |  0 |   0 |   0 |      --      |      --      |    Inf | unknown
r 0.1s|     1 |     0 |   912 |     - |simplero|   0 | 676 |  77 |  77 |   0 |  0 |   0 |   0 |      --      | 2.133166e+01 |    Inf | unknown
r 0.1s|     1 |     0 |   942 |     - |simplero|   0 | 687 |  77 |  77 |   0 |  0 |   0 |   0 |      --      | 1.921705e+01 |    Inf | unknown
r 0.1s|     1 |     0 |   975 |     - |simplero|   0 | 698 |  77 |  77 |   0 |  0 |   0 |   0 |      --      | 1.865946e+01 |    Inf | unknown
r 0.1s|     1 |     0 |  1040 |     - |simplero|   0 | 709 |  77 |  77 |   0 |  0 |   0 |   0 |      --      | 1.646390e+01 |    Inf | unknown
r 0.1s|     1 |     0 |  1092 |     - |simplero|   0 | 720 |  77 |  77 |   0 |  0 |   0 |   0 |      --      | 1.555229e+01 |    Inf | unknown
r 0.1s|     1 |     0 |  1169 |     - |simplero|   0 | 731 |  77 |  77 |   0 |  0 |   0 |   0 |      --      | 1.265678e+01 |    Inf | unknown
r 0.1s|     1 |     0 |  1210 |     - |simplero|   0 | 742 |  77 |  77 |   0 |  0 |   0 |   0 |      --      | 1.179742e+01 |    Inf | unknown
r 0.1s|     1 |     0 |  1279 |     - |simplero|   0 | 753 |  77 |  77 |   0 |  0 |   0 |   0 |      --      | 1.001294e+01 |    Inf | unknown
r 0.1s|     1 |     0 |  1305 |     - |simplero|   0 | 764 |  77 |  77 |   0 |  0 |   0 |   0 |      --      | 9.252208e+00 |    Inf | unknown
r 0.1s|     1 |     0 |  1319 |     - |simplero|   0 | 764 |  77 |  77 |   0 |  0 |   0 |   0 |      --      | 9.088662e+00 |    Inf | unknown
r 0.1s|     1 |     0 |  1327 |     - |simplero|   0 | 764 |  77 |  77 |   0 |  0 |   0 |   0 |      --      | 9.029229e+00 |    Inf | unknown
r 0.1s|     1 |     0 |  1333 |     - |simplero|   0 | 764 |  77 |  77 |   0 |  0 |   0 |   0 |      --      | 9.015764e+00 |    Inf | unknown
r 0.1s|     1 |     0 |  1381 |     - |simplero|   0 | 775 |  77 |  77 |   0 |  0 |   0 |   0 |      --      | 7.657159e+00 |    Inf | unknown
r 0.1s|     1 |     0 |  1398 |     - |simplero|   0 | 775 |  77 |  77 |   0 |  0 |   0 |   0 |      --      | 7.546399e+00 |    Inf | unknown
 time | node  | left  |LP iter|LP it/n|mem/heur|mdpt |vars |cons |rows |cuts |sepa|confs|strbr|  dualbound   | primalbound  |  gap   | compl. 
r 0.1s|     1 |     0 |  1402 |     - |simplero|   0 | 775 |  77 |  77 |   0 |  0 |   0 |   0 |      --      | 7.544896e+00 |    Inf | unknown
r 0.1s|     1 |     0 |  1455 |     - |simplero|   0 | 786 |  77 |  77 |   0 |  0 |   0 |   0 |      --      | 6.272144e+00 |    Inf | unknown
r 0.1s|     1 |     0 |  1472 |     - |simplero|   0 | 786 |  77 |  77 |   0 |  0 |   0 |   0 |      --      | 6.144617e+00 |    Inf | unknown
r 0.1s|     1 |     0 |  1501 |     - |simplero|   0 | 797 |  77 |  77 |   0 |  0 |   0 |   0 |      --      | 5.781923e+00 |    Inf | unknown
r 0.1s|     1 |     0 |  1509 |     - |simplero|   0 | 797 |  77 |  77 |   0 |  0 |   0 |   0 |      --      | 5.770926e+00 |    Inf | unknown
r 0.1s|     1 |     0 |  1511 |     - |simplero|   0 | 797 |  77 |  77 |   0 |  0 |   0 |   0 |      --      | 5.770220e+00 |    Inf | unknown
r 0.1s|     1 |     0 |  1546 |     - |simplero|   0 | 808 |  77 |  77 |   0 |  0 |   0 |   0 |      --      | 5.316491e+00 |    Inf | unknown
r 0.1s|     1 |     0 |  1564 |     - |simplero|   0 | 808 |  77 |  77 |   0 |  0 |   0 |   0 |      --      | 5.127654e+00 |    Inf | unknown
r 0.1s|     1 |     0 |  1568 |     - |simplero|   0 | 808 |  77 |  77 |   0 |  0 |   0 |   0 |      --      | 5.123049e+00 |    Inf | unknown
r 0.1s|     1 |     0 |  1594 |     - |simplero|   0 | 819 |  77 |  77 |   0 |  0 |   0 |   0 |      --      | 4.934971e+00 |    Inf | unknown
r 0.1s|     1 |     0 |  1603 |     - |simplero|   0 | 819 |  77 |  77 |   0 |  0 |   0 |   0 |      --      | 4.885267e+00 |    Inf | unknown
r 0.1s|     1 |     0 |  1607 |     - |simplero|   0 | 819 |  77 |  77 |   0 |  0 |   0 |   0 |      --      | 4.883958e+00 |    Inf | unknown
r 0.1s|     1 |     0 |  1631 |     - |simplero|   0 | 830 |  77 |  77 |   0 |  0 |   0 |   0 |      --      | 4.454760e+00 |    Inf | unknown
r 0.1s|     1 |     0 |  1648 |     - |simplero|   0 | 830 |  77 |  77 |   0 |  0 |   0 |   0 |      --      | 4.261398e+00 |    Inf | unknown
r 0.1s|     1 |     0 |  1658 |     - |simplero|   0 | 830 |  77 |  77 |   0 |  0 |   0 |   0 |      --      | 4.241584e+00 |    Inf | unknown
 time | node  | left  |LP iter|LP it/n|mem/heur|mdpt |vars |cons |rows |cuts |sepa|confs|strbr|  dualbound   | primalbound  |  gap   | compl. 
r 0.1s|     1 |     0 |  1659 |     - |simplero|   0 | 830 |  77 |  77 |   0 |  0 |   0 |   0 |      --      | 4.241182e+00 |    Inf | unknown
r 0.1s|     1 |     0 |  1697 |     - |simplero|   0 | 841 |  77 |  77 |   0 |  0 |   0 |   0 |      --      | 3.747313e+00 |    Inf | unknown
r 0.1s|     1 |     0 |  1709 |     - |simplero|   0 | 841 |  77 |  77 |   0 |  0 |   0 |   0 |      --      | 3.739414e+00 |    Inf | unknown
r 0.1s|     1 |     0 |  1740 |     - |simplero|   0 | 852 |  77 |  77 |   0 |  0 |   0 |   0 |      --      | 3.213761e+00 |    Inf | unknown
  0.1s|     1 |     0 |  1745 |     - |  4171k |   0 | 852 |  77 |  77 |   0 |  0 |   0 |   0 |      --      | 3.213761e+00 |    Inf | unknown
r 0.1s|     1 |     0 |  1745 |     - |simplero|   0 | 852 |  77 |  77 |   0 |  0 |   0 |   0 |      --      | 3.191094e+00 |    Inf | unknown
r 0.1s|     1 |     0 |  1747 |     - |simplero|   0 | 852 |  77 |  77 |   0 |  0 |   0 |   0 |      --      | 3.191031e+00 |    Inf | unknown
r 0.1s|     1 |     0 |  1768 |     - |simplero|   0 | 863 |  77 |  77 |   0 |  0 |   0 |   0 |      --      | 3.002912e+00 |    Inf | unknown
r 0.1s|     1 |     0 |  1780 |     - |simplero|   0 | 863 |  77 |  77 |   0 |  0 |   0 |   0 |      --      | 2.964876e+00 |    Inf | unknown
r 0.1s|     1 |     0 |  1787 |     - |simplero|   0 | 863 |  77 |  77 |   0 |  0 |   0 |   0 |      --      | 2.962513e+00 |    Inf | unknown
r 0.1s|     1 |     0 |  1808 |     - |simplero|   0 | 874 |  77 |  77 |   0 |  0 |   0 |   0 |      --      | 2.793075e+00 |    Inf | unknown
r 0.1s|     1 |     0 |  1821 |     - |simplero|   0 | 874 |  77 |  77 |   0 |  0 |   0 |   0 |      --      | 2.747605e+00 |    Inf | unknown
r 0.1s|     1 |     0 |  1844 |     - |simplero|   0 | 885 |  77 |  77 |   0 |  0 |   0 |   0 |      --      | 2.654638e+00 |    Inf | unknown
r 0.1s|     1 |     0 |  1853 |     - |simplero|   0 | 885 |  77 |  77 |   0 |  0 |   0 |   0 |      --      | 2.628653e+00 |    Inf | unknown
r 0.1s|     1 |     0 |  1888 |     - |simplero|   0 | 894 |  77 |  77 |   0 |  0 |   0 |   0 |      --      | 2.384301e+00 |    Inf | unknown
 time | node  | left  |LP iter|LP it/n|mem/heur|mdpt |vars |cons |rows |cuts |sepa|confs|strbr|  dualbound   | primalbound  |  gap   | compl. 
r 0.1s|     1 |     0 |  1904 |     - |simplero|   0 | 902 |  77 |  77 |   0 |  0 |   0 |   0 |      --      | 2.325946e+00 |    Inf | unknown
r 0.1s|     1 |     0 |  1907 |     - |simplero|   0 | 902 |  77 |  77 |   0 |  0 |   0 |   0 |      --      | 2.324733e+00 |    Inf | unknown
r 0.1s|     1 |     0 |  1922 |     - |simplero|   0 | 912 |  77 |  77 |   0 |  0 |   0 |   0 |      --      | 2.274590e+00 |    Inf | unknown
r 0.1s|     1 |     0 |  1929 |     - |simplero|   0 | 915 |  77 |  77 |   0 |  0 |   0 |   0 |      --      | 2.262447e+00 |    Inf | unknown
  0.1s|     1 |     0 |  1929 |     - |  4375k |   0 | 915 |  77 |  77 |   0 |  0 |   0 |   0 | 2.262447e+00 | 2.262447e+00 |   0.00%| unknown
  0.1s|     1 |     0 |  1929 |     - |  4375k |   0 | 915 |  77 |  77 |   0 |  0 |   0 |   0 | 2.262447e+00 | 2.262447e+00 |   0.00%| unknown

SCIP Status        : problem is solved [optimal solution found]
Solving Time (sec) : 0.12
Solving Nodes      : 1
Primal Bound       : +2.26244725738397e+00 (47 solutions)
Dual Bound         : +2.26244725738397e+00
Gap                : 0.00 %

written transformed problem to file <results_rootrelaxation/bin012_060_005.srr.lp>
written transformed problem to file <results_rootrelaxation/bin012_060_005.srr.cip>

written solution information to file <results_rootrelaxation/bin012_060_005.srr.sol>



